\* Problem: Unknown *\

Maximize
 obj: + xp_0_0 + xp_0_1 + xp_1_0 + xp_1_1 + xp_1_2 + xp_1_3 + xp_1_4
 + xp_1_5 + xp_1_6 + xp_2_0 + xp_2_1 + xp_2_2 + xp_2_3 + xp_2_4 + xp_2_5
 + xp_2_6 + xp_2_7 + xp_2_8 + xp_2_9 + xp_3_0 + xp_3_1 + xp_3_2 + xp_3_3
 + xp_3_4 + xp_3_5 + xp_3_6 + xp_3_7 + xp_3_8 + xp_3_9 + xp_3_10
 + xp_3_11 + xp_4_0 + xp_4_1 + xp_5_0 + xp_5_1 + xp_5_2 + xp_6_0
 + xp_6_1 + xp_6_2 + xp_7_0 + xp_8_0 + xp_8_1 + xp_8_2 + xp_9_0 + xp_9_1
 + xp_9_2 + xp_9_3 + xp_10_0 + xp_10_1 + xp_10_2 + xp_10_3 + xp_10_4
 + xp_10_5 + xp_11_0 + xp_11_1 + xp_12_0 + xp_12_1 + xp_13_0 + xp_13_1
 + xp_13_2 + xp_13_3 + xp_14_0 + xp_14_1 + xp_14_2 + xp_14_3 + xp_14_4
 + xp_14_5 + xp_14_6 + xp_14_7 + xp_14_8 + xp_15_0 + xp_15_1 + xp_15_2
 + xp_15_3 + xp_16_0 + xp_17_0 + xp_17_1 + xp_17_2 + xp_17_3 + xp_17_4
 + xp_17_5 + xp_18_0 + xp_18_1 + xp_18_2 + xp_18_3 + xp_19_0 + xp_19_1
 + xp_19_2 + xp_19_3 + xp_19_4 + xp_19_5 + xp_19_6 + xp_19_7 + xp_19_8
 + xp_19_9 + xp_19_10 + xp_20_0 + xp_20_1 + xp_20_2 + xp_20_3 + xp_20_4
 + xp_20_5 + xp_20_6 + xp_20_7 + xp_21_0 + xp_21_1 + xp_21_2 + xp_21_3
 + xp_21_4 + xp_21_5

Subject To
 r_1: + xp_20_0 <= 0.857806691449814
 r_2: + xp_10_0 + xp_2_1 <= 0.855803571428571
 r_3: + xp_20_3 + xp_10_1 <= 0.846459537572254
 r_4: + xp_20_7 + xp_20_4 + xp_19_2 + xp_18_0 + xp_14_8 + xp_10_3
 + xp_3_6 <= 0.850638977635783
 r_5: + xp_21_2 + xp_20_6 + xp_19_6 + xp_10_5 + xp_3_9 + xp_3_2 + xp_2_8
 <= 0.836896929824561
 r_6: + xp_19_10 + xp_11_0 <= 0.844089673913043
 r_7: + xp_20_5 + xp_20_2 + xp_11_1 + xp_10_4 + xp_10_2 + xp_3_10
 <= 0.857806691449814
 r_8: + xp_20_1 <= 0.840109223300971
 r_9: + xp_2_9 + xp_2_0 + xp_1_5 <= 0.855803571428571
 r_10: 0 xp_0_0 <= 0.846459537572254
 r_11: + xp_0_1 <= 0.857806691449814
 r_12: 0 xp_0_0 <= 0.840109223300971
 r_13: 0 xp_0_0 <= 0.844089673913043
 r_14: + xp_2_3 <= 0.850638977635783
 r_15: + xp_21_4 + xp_3_4 + xp_1_4 <= 0.836896929824561
 r_16: + xp_13_1 <= 0.857806691449814
 r_17: + xp_9_1 <= 0.857806691449814
 r_18: + xp_19_0 + xp_12_1 <= 0.844089673913043
 r_19: + xp_17_4 + xp_15_2 + xp_14_8 + xp_14_7 + xp_14_2 + xp_2_9
 <= 0.857806691449814
 r_20: + xp_1_2 <= 0.855803571428571
 r_21: 0 xp_0_0 <= 0.846459537572254
 r_22: + xp_3_7 + xp_3_5 + xp_2_7 <= 0.850638977635783
 r_23: 0 xp_0_0 <= 0.840109223300971
 r_24: 0 xp_0_0 <= 0.840109223300971
 r_25: 0 xp_0_0 <= 0.836896929824561
 r_26: + xp_17_0 <= 0.836896929824561
 r_27: + xp_20_5 + xp_17_4 + xp_1_4 + xp_1_0 <= 0.855803571428571
 r_28: + xp_4_1 <= 0.846459537572254
 r_29: + xp_17_1 + xp_14_6 + xp_10_5 + xp_10_4 + xp_5_2 + xp_2_8
 + xp_2_4 <= 0.855803571428571
 r_30: + xp_20_6 + xp_18_2 + xp_17_2 <= 0.850638977635783
 r_31: + xp_17_5 + xp_1_6 <= 0.857806691449814
 r_32: + xp_19_8 + xp_19_7 + xp_19_6 + xp_19_1 + xp_17_3 + xp_11_1
 + xp_6_2 <= 0.844089673913043
 r_33: + xp_21_5 + xp_21_1 + xp_13_3 + xp_1_3 <= 0.855803571428571
 r_34: + xp_13_0 <= 0.844089673913043
 r_35: + xp_21_4 + xp_17_3 + xp_13_1 + xp_8_1 <= 0.844089673913043
 r_36: + xp_21_3 + xp_13_2 + xp_3_11 + xp_2_6 <= 0.850638977635783
 r_37: + xp_21_2 + xp_9_3 <= 0.844089673913043
 r_38: 0 xp_0_0 <= 0.840109223300971
 r_39: + xp_21_0 + xp_3_1 <= 0.844089673913043
 r_40: + xp_18_3 <= 0.850638977635783
 r_41: 0 xp_0_0 <= 0.855803571428571
 r_42: + xp_17_1 + xp_15_3 + xp_14_6 + xp_14_4 + xp_8_2
 <= 0.855803571428571
 r_43: + xp_1_5 <= 0.855803571428571
 r_44: 0 xp_0_0 <= 0.846459537572254
 r_45: + xp_19_8 <= 0.855803571428571
 r_46: 0 xp_0_0 <= 0.857806691449814
 r_47: + xp_19_9 + xp_19_3 + xp_6_0 <= 0.855803571428571
 r_48: + xp_19_5 + xp_6_1 <= 0.850638977635783
 r_49: 0 xp_0_0 <= 0.846459537572254
 r_50: + xp_20_7 + xp_20_5 + xp_20_2 + xp_17_4 + xp_15_2 + xp_14_7
 + xp_13_3 <= 0.855803571428571
 r_51: + xp_21_1 + xp_19_7 + xp_6_2 + xp_5_2 <= 0.855803571428571
 r_52: + xp_5_0 <= 0.855803571428571
 r_53: + xp_21_5 + xp_5_1 <= 0.857806691449814
 r_54: + xp_10_3 + xp_8_2 + xp_2_7 + xp_2_6 + xp_2_3
 <= 0.850638977635783
 r_55: + xp_20_7 + xp_7_0 <= 0.850638977635783
 r_56: + xp_19_5 + xp_19_4 + xp_19_2 + xp_8_1 + xp_6_1
 <= 0.850638977635783
 r_57: 0 xp_0_0 <= 0.850638977635783
 r_58: + xp_17_2 + xp_15_1 + xp_14_5 + xp_8_0 <= 0.850638977635783
 r_59: + xp_20_6 + xp_20_4 + xp_16_0 + xp_14_8 + xp_13_2
 <= 0.850638977635783
 r_60: + xp_21_3 + xp_3_11 + xp_3_6 + xp_3_5 <= 0.850638977635783
 r_61: + xp_3_7 <= 0.857806691449814
 r_62: + xp_19_7 + xp_19_5 + xp_19_3 + xp_14_7 + xp_1_1
 <= 0.846459537572254
 r_63: + xp_19_10 + xp_19_6 + xp_19_2 + xp_18_0 + xp_14_8 + xp_9_2
 + xp_3_9 <= 0.846459537572254
 r_64: + xp_14_0 <= 0.846459537572254
 r_65: + xp_20_3 + xp_19_0 + xp_14_2 <= 0.846459537572254
 r_66: + xp_19_1 + xp_18_2 + xp_14_6 + xp_3_8 <= 0.846459537572254
 r_67: + xp_19_8 + xp_18_3 + xp_14_4 + xp_10_1 + xp_2_2
 <= 0.846459537572254
 r_68: + xp_19_9 + xp_19_4 + xp_18_1 + xp_14_5 + xp_14_1
 <= 0.857806691449814
 r_69: + xp_14_3 <= 0.840109223300971
 r_70: 0 xp_0_0 <= 0.840109223300971
 r_71: + xp_17_5 + xp_15_0 + xp_14_1 <= 0.857806691449814
 r_72: 0 xp_0_0 <= 0.857806691449814
 r_73: + xp_21_5 + xp_20_5 + xp_11_1 + xp_10_4 + xp_4_1 + xp_3_10
 + xp_3_7 + xp_3_3 <= 0.857806691449814
 r_74: + xp_15_3 + xp_10_2 + xp_5_1 + xp_2_5 <= 0.857806691449814
 r_75: + xp_20_2 + xp_19_9 + xp_15_2 + xp_1_6 <= 0.857806691449814
 r_76: + xp_19_4 + xp_18_1 + xp_15_1 + xp_14_5 <= 0.857806691449814
 r_77: + xp_4_0 <= 0.857806691449814
 r_78: + xp_3_0 + xp_2_4 + xp_1_6 + xp_1_0 <= 0.840109223300971
 r_79: + xp_3_3 + xp_2_5 + xp_0_0 <= 0.840109223300971
 r_80: + xp_14_3 + xp_3_4 + xp_2_3 + xp_2_0 + xp_1_5 + xp_1_4 + xp_0_1
 <= 0.840109223300971
 r_81: + xp_9_0 + xp_3_10 + xp_3_6 + xp_3_2 + xp_2_8 + xp_2_1
 <= 0.840109223300971
 r_82: + xp_20_1 + xp_12_1 + xp_9_1 + xp_3_7 + xp_3_5 + xp_2_9 + xp_2_7
 + xp_1_2 <= 0.840109223300971
 r_83: + xp_12_0 + xp_9_3 + xp_3_11 + xp_3_1 + xp_2_6 + xp_1_3
 <= 0.840109223300971
 r_84: + xp_9_2 + xp_3_9 + xp_3_8 + xp_2_2 + xp_1_1 <= 0.840109223300971

Bounds
 0 <= xp_0_0 <= 0.846153846153846
 0 <= xp_0_1 <= 0.0769230769230769
 0 <= xp_1_0 <= 0.346153846153846
 0 <= xp_1_1 <= 0.346153846153846
 0 <= xp_1_2 <= 0.346153846153846
 0 <= xp_1_3 <= 0.115384615384615
 0 <= xp_1_4 <= 0.0384615384615385
 0 <= xp_1_5 <= 0.0384615384615385
 0 <= xp_1_6 <= 0.153846153846154
 0 <= xp_2_0 <= 0.384615384615385
 0 <= xp_2_1 <= 0.0769230769230769
 0 <= xp_2_2 <= 0.192307692307692
 0 <= xp_2_3 <= 0.0769230769230769
 0 <= xp_2_4 <= 0.153846153846154
 0 <= xp_2_5 <= 0.0384615384615385
 0 <= xp_2_6 <= 0.307692307692308
 0 <= xp_2_7 <= 0.0769230769230769
 0 <= xp_2_8 <= 0.0384615384615385
 0 <= xp_2_9 <= 0.0384615384615385
 0 <= xp_3_0 <= 0.307692307692308
 0 <= xp_3_1 <= 0.0769230769230769
 0 <= xp_3_2 <= 0.384615384615385
 0 <= xp_3_3 <= 0.0769230769230769
 0 <= xp_3_4 <= 0.307692307692308
 0 <= xp_3_5 <= 0.0769230769230769
 0 <= xp_3_6 <= 0.0769230769230769
 0 <= xp_3_7 <= 0.0769230769230769
 0 <= xp_3_8 <= 0.230769230769231
 0 <= xp_3_9 <= 0.0769230769230769
 0 <= xp_3_10 <= 0.0769230769230769
 0 <= xp_3_11 <= 0.0769230769230769
 0 <= xp_4_0 <= 0.423076923076923
 0 <= xp_4_1 <= 0.0384615384615385
 0 <= xp_5_0 <= 0.615384615384615
 0 <= xp_5_1 <= 0.230769230769231
 0 <= xp_5_2 <= 0.0769230769230769
 0 <= xp_6_0 <= 0.615384615384615
 0 <= xp_6_1 <= 0.230769230769231
 0 <= xp_6_2 <= 0.0769230769230769
 0 <= xp_7_0 <= 0.461538461538462
 0 <= xp_8_0 <= 0.384615384615385
 0 <= xp_8_1 <= 0.0384615384615385
 0 <= xp_8_2 <= 0.0384615384615385
 0 <= xp_9_0 <= 0.269230769230769
 0 <= xp_9_1 <= 0.0384615384615385
 0 <= xp_9_2 <= 0.0769230769230769
 0 <= xp_9_3 <= 0.0769230769230769
 0 <= xp_10_0 <= 0.730769230769231
 0 <= xp_10_1 <= 0.0384615384615385
 0 <= xp_10_2 <= 0.307692307692308
 0 <= xp_10_3 <= 0.115384615384615
 0 <= xp_10_4 <= 0.0769230769230769
 0 <= xp_10_5 <= 0.115384615384615
 0 <= xp_11_0 <= 0.846153846153846
 0 <= xp_11_1 <= 0.0769230769230769
 0 <= xp_12_0 <= 0.307692307692308
 0 <= xp_12_1 <= 0.153846153846154
 0 <= xp_13_0 <= 0.846153846153846
 0 <= xp_13_1 <= 0.692307692307692
 0 <= xp_13_2 <= 0.0769230769230769
 0 <= xp_13_3 <= 0.230769230769231
 0 <= xp_14_0 <= 0.961538461538462
 0 <= xp_14_1 <= 0.384615384615385
 0 <= xp_14_2 <= 0.192307692307692
 0 <= xp_14_3 <= 0.0384615384615385
 0 <= xp_14_4 <= 0.5
 0 <= xp_14_5 <= 0.0384615384615385
 0 <= xp_14_6 <= 0.0769230769230769
 0 <= xp_14_7 <= 0.0769230769230769
 0 <= xp_14_8 <= 0.0384615384615385
 0 <= xp_15_0 <= 0.461538461538462
 0 <= xp_15_1 <= 0.153846153846154
 0 <= xp_15_2 <= 0.230769230769231
 0 <= xp_15_3 <= 0.0769230769230769
 0 <= xp_16_0 <= 0.461538461538462
 0 <= xp_17_0 <= 0.884615384615385
 0 <= xp_17_1 <= 0.115384615384615
 0 <= xp_17_2 <= 0.269230769230769
 0 <= xp_17_3 <= 0.0384615384615385
 0 <= xp_17_4 <= 0.0384615384615385
 0 <= xp_17_5 <= 0.0384615384615385
 0 <= xp_18_0 <= 0.153846153846154
 0 <= xp_18_1 <= 0.153846153846154
 0 <= xp_18_2 <= 0.115384615384615
 0 <= xp_18_3 <= 0.0384615384615385
 0 <= xp_19_0 <= 0.153846153846154
 0 <= xp_19_1 <= 0.384615384615385
 0 <= xp_19_2 <= 0.115384615384615
 0 <= xp_19_3 <= 0.115384615384615
 0 <= xp_19_4 <= 0.153846153846154
 0 <= xp_19_5 <= 0.192307692307692
 0 <= xp_19_6 <= 0.0384615384615385
 0 <= xp_19_7 <= 0.0769230769230769
 0 <= xp_19_8 <= 0.0384615384615385
 0 <= xp_19_9 <= 0.0384615384615385
 0 <= xp_19_10 <= 0.0769230769230769
 0 <= xp_20_0 <= 1
 0 <= xp_20_1 <= 0.153846153846154
 0 <= xp_20_2 <= 0.153846153846154
 0 <= xp_20_3 <= 0.615384615384615
 0 <= xp_20_4 <= 0.230769230769231
 0 <= xp_20_5 <= 0.0769230769230769
 0 <= xp_20_6 <= 0.0384615384615385
 0 <= xp_20_7 <= 0.0384615384615385
 0 <= xp_21_0 <= 0.692307692307692
 0 <= xp_21_1 <= 0.307692307692308
 0 <= xp_21_2 <= 0.0769230769230769
 0 <= xp_21_3 <= 0.230769230769231
 0 <= xp_21_4 <= 0.0384615384615385
 0 <= xp_21_5 <= 0.0384615384615385

End
